results/real/sos1/mar_34_382.out
Version identifier: 22.1.1.0 | 2022-11-28 | 9160aff4d
CPXPARAM_Threads                                 1
CPXPARAM_MIP_Strategy_VariableSelect             3
CPXPARAM_TimeLimit                               599.99999239500005
1 of 1 MIP starts provided solutions.
MIP start 'm1' defined initial solution with objective 128.0000.
Tried aggregator 1 time.
MIP Presolve eliminated 17 rows and 764 columns.
MIP Presolve modified 35 coefficients.
Reduced MIP has 2288 rows, 4202 columns, and 104483 nonzeros.
Reduced MIP has 4202 binaries, 0 generals, 0 SOSs, and 0 indicators.
Presolve time = 0.06 sec. (166.35 ticks)
Probing time = 0.01 sec. (15.15 ticks)
Tried aggregator 1 time.
Detecting symmetries...
MIP Presolve modified 10 coefficients.
Reduced MIP has 2288 rows, 4202 columns, and 104615 nonzeros.
Reduced MIP has 4202 binaries, 0 generals, 0 SOSs, and 0 indicators.
Presolve time = 0.06 sec. (157.57 ticks)
Probing time = 0.01 sec. (15.16 ticks)
Clique table members: 1520.
MIP emphasis: balance optimality and feasibility.
MIP search method: dynamic search.
Parallel mode: none, using 1 thread.
Root relaxation solution time = 0.03 sec. (61.62 ticks)

        Nodes                                         Cuts/
   Node  Left     Objective  IInf  Best Integer    Best Bound    ItCnt     Gap

*     0+    0                          128.0000    73153.0000              --- 
      0     0      382.0000   185      128.0000      382.0000      783  198.44%
*     0+    0                          382.0000      382.0000             0.00%
      0     0        cutoff            382.0000      382.0000      783    0.00%
Elapsed time = 0.28 sec. (619.07 ticks, tree = 0.01 MB, solutions = 2)

Root node processing (before b&c):
  Real time             =    0.28 sec. (619.26 ticks)
Sequential b&c:
  Real time             =    0.00 sec. (0.00 ticks)
                          ------------
Total (root+branch&cut) =    0.28 sec. (619.26 ticks)
Primal:	382
Dual:	382
Status:	Optimal
Time:	0.27
Sequence:
	5
	1
	10
	9
	9
	7
	4
	1
	9
	0
	1
	7
	9
	2
	10
	1
	1
	9
	7
	5
	2
	9
	5
	0
	7
	9
	0
	9
	1
	5
	9
	9
	7
	4
	9
	5
	9
	9
	9
	7
	9
	1
	9
	1
	1
	7
	9
	9
	6
	5
	9
	5
	5
	9
	5
	7
	0
	9
	9
	9
	0
	7
	5
	9
	5
	5
	1
	9
	5
	5
	9
	5
	5
	9
	7
	1
	5
	9
	6
	5
	9
	10
	5
	5
	9
	7
	1
	5
	9
	5
	4
	1
	5
	7
	9
	9
	5
	5
	9
	7
	5
	10
	4
	1
	5
	10
	4
	7
	1
	5
	9
	1
	5
	5
	9
	1
	7
	9
	5
	1
	0
	4
	7
	9
	5
	4
	0
	4
	7
	1
	4
	4
	1
	4
	0
	1
	4
	7
	1
	4
	4
	1
	0
	7
	9
	0
	6
	1
	9
	1
	1
	9
	7
	6
	1
	4
	5
	1
	7
	9
	5
	1
	0
	9
	7
	6
	9
	1
	5
	9
	1
	1
	9
	7
	1
	1
	9
	1
	4
	1
	1
	9
	1
	7
	1
	9
	1
	1
	1
	9
	7
	1
	5
	9
	4
	9
	9
	7
	5
	9
	9
	5
	5
	9
	5
	7
	9
	9
	1
	1
	9
	7
	9
	9
	6
	5
	9
	9
	1
	6
	7
	9
	1
	9
	9
	5
	7
	9
	9
	4
	9
	4
	7
	9
	4
	4
	9
	5
	9
	7
	4
	0
	5
	5
	9
	0
	7
	9
	5
	1
	4
	4
	3
	5
	5
	9
	5
	5
	9
	7
	1
	9
	0
	5
	5
	9
	9
	7
	1
	1
	4
	0
	9
	7
	9
	9
	5
	9
	9
	9
	9
	9
	7
	9
	1
	1
	9
	1
	7
	1
	9
	1
	1
	1
	9
	1
	7
	2
	1
	1
	9
	1
	1
	4
	1
	7
	9
	1
	1
	6
	9
	7
	9
	6
	9
	1
	1
	7
	9
	1
	9
	1
	1
	9
	7
	9
	9
	5
	1
	1
	9
	7
	9
	9
	4
	9
	9
	9
	9
	7
	9
	9
	9
	6
	9
	9
	7
	4
	0
	4
	1
	6
	9
	2
	7
	5
	9
	5
	5
	9
	7
	5
	9
	5
	5
	9
	7
	9
	9
	6
	1
	9
	5
	7
	0
	9
	5
	9
	5
	5
	9
	7
